40

N  0.47503834367411168493 0.01430712160868285662 -0.66243101316737096340
H  -0.22130981910413577429 -0.20892842162064881317 0.07861783526214795315
C  -0.27290898613861169775 0.86329644586932585693 -1.66577095981104261746
H  0.45475986251658118142 1.19030936186019120626 -2.41615318030940118277
C  -1.43954679162173970752 0.13283541614978380818 -2.36129735353445724400
C  -0.84342135853778388288 2.06972099300269540834 -0.91893842555593607813
H  -1.74900002873628945821 0.78948055912634362841 -3.18237577252431202979
H  -1.08050929344858293035 -0.78425926344005980617 -2.83699656207946260267
C  -2.66883767154538364963 -0.13793886187579015856 -1.49235380766967273836
O  -1.09425491571455757445 2.06579217342603715935 0.26615700218696897172
H  -3.04460389890497040710 0.79328773071725489086 -1.05544096732006953410
H  -3.46114605298855160243 -0.55644178635394814236 -2.11987717594731517323
S  -2.32693096954512324004 -1.30448766947375327518 -0.09855888204551783993
C  -3.48675552076435346649 -0.65213750847213058925 1.15619915739195899818
H  -3.37189815244173773934 -1.27720640139810548419 2.04424225406440251973
H  -3.23980514661378293795 0.38333211421685936537 1.40227541377073228190
H  -4.51501958750728960013 -0.73345976947801483359 0.79699041030572514988
O  -1.07950532436062229813 3.06142609581787716877 -1.76838991233680098425
C  0.94593152570554139835 -1.28982519204193479823 -1.22833600340809789842
H  0.09410171130844342813 -1.93857939029139259013 -1.42414220363036281292
H  1.50694751657288783520 -1.09789369158816763061 -2.14589934245665681090
H  1.58883160879949869582 -1.76196439936921334102 -0.48377837040460219820
C  1.65594052258318380488 0.76314882138813622259 -0.03691286160540303146
H  2.44988588703699550209 0.77276720134439236265 -0.78950832051927655186
H  1.32346945746404598410 1.78469586367252874837 0.15155804133091543839
C  2.08631209511386384037 0.09582207055862920764 1.23390135809562018210
C  1.25741182156041575446 0.16406025283493314015 2.35834407303872595207
C  3.29662784382256113247 -0.59526274192527317553 1.30672349423401001900
C  1.63382250240579174339 -0.46651785886947350068 3.53777017113861491637
H  0.32680866058321400569 0.72547036499577455260 2.31385086251257021672
C  3.67442776574140728130 -1.21779855141279647057 2.49231992951688230420
H  3.95287998985054001011 -0.63676854018344519748 0.44118010081965119973
C  2.84138966766100686812 -1.15803347002409795508 3.60481306977875481934
H  0.99225658682222384055 -0.40753905128503420396 4.41034172110860911431
H  4.61967228267740459557 -1.74670803177620026503 2.54709887311983296243
H  3.13658786662805022516 -1.64331826630353394769 4.52885378902732593787
C  -1.71556084167803213347 4.24604302807784161899 -1.19813511198304767369
H  -1.82189450907141003988 4.93740424134483024687 -2.03119238952143987831
H  -2.68810803000881959335 3.97699712867687926732 -0.78185508016983451540
H  -1.07810697063021532216 4.66357715053098065283 -0.41698515024044802146




